100 500 200 500 10 100
26 316
57 332
65 432
49 459
20 435
70 284
98 221
38 236
76 358
81 455
87 202
98 269
65 219
71 484
84 414
52 323
55 256
86 268
49 298
49 449
89 436
92 243
80 255
82 477
36 280
84 201
24 359
76 430
62 435
17 340
49 283
63 277
57 366
30 224
36 270
71 446
95 404
64 463
100 467
83 219
23 267
47 478
63 240
87 252
76 268
77 221
52 354
35 388
41 393
21 383
40 283
45 469
99 215
62 344
61 216
86 479
63 333
29 458
61 311
56 296
63 351
14 480
79 314
30 423
10 228
94 419
41 383
82 247
54 465
16 329
40 203
97 462
40 211
34 458
47 377
44 201
67 269
31 482
95 296
72 339
100 459
16 386
19 291
49 437
48 273
86 434
100 373
34 361
77 262
47 456
92 269
77 416
46 386
20 421
11 250
16 256
63 465
58 247
26 374
52 260
